SCIP version 5.0.0 [precision: 8 byte] [memory: block] [mode: optimized] [LP solver: NONE] [GitHash: 3bbd232]
Copyright (C) 2002-2017 Konrad-Zuse-Zentrum fuer Informationstechnik Berlin (ZIB)

External codes: 
  Readline EditLine w  GNU library for command line editing (gnu.org/s/readline)
  CppAD 20160000.1     Algorithmic Differentiation of C++ algorithms developed by B. Bell (www.coin-or.org/CppAD)
  ZLIB 1.2.5           General purpose compression library by J. Gailly and M. Adler (zlib.net)
  GMP 6.1.2            GNU Multiple Precision Arithmetic Library developed by T. Granlund (gmplib.org)

user parameter file <scip.set> not found - using default parameters

read problem <../../Split_data/output/statG/3/3_sample_statG.logreg>
============

File name	:	../../Split_data/output/statG/3/3_sample_statG.logreg
Problem name 	:	3_sample_statG
Number of data	:	800
Number of var	:	61
The given data has linear dependence
13 sets of column vector are linearly dependent:

[dim=1] time: 0.046952
[dim=2] time: 0.087891
[dim=3] time: 0.130559
[dim=4] time: 0.171144
[dim=5] time: 0.210545
[dim=6] time: 0.251012
[dim=7] time: 0.29705
[dim=8] time: 0.346158
[dim=9] time: 0.403584
[dim=10] time: 0.44458
[dim=11] time: 0.485325
[dim=12] time: 0.526212
[dim=13] time: 0.566868
[dim=14] time: 0.60953
[dim=15] time: 0.656124
[dim=16] time: 0.710367
[dim=17] time: 0.760585
[dim=18] time: 0.802586
[dim=19] time: 0.848403
[dim=20] time: 0.891383
[dim=21] time: 0.937195
[dim=22] Time of forward = 0.973023sec.
AIC: 765.54
k: 21

[dim=48] time: 0.106011
[dim=47] time: 0.193308
[dim=46] time: 0.267524
[dim=45] time: 0.332878
[dim=44] time: 0.398245
[dim=43] time: 0.482869
[dim=42] time: 0.56586
[dim=41] time: 0.645429
[dim=40] time: 0.712128
[dim=39] time: 0.767515
[dim=38] time: 0.825846
[dim=37] time: 0.878983
[dim=36] time: 0.922496
[dim=35] time: 0.977068
[dim=34] time: 1.02567
[dim=33] time: 1.07117
[dim=32] time: 1.11479
[dim=31] time: 1.15548
[dim=30] time: 1.20235
[dim=29] time: 1.24073
[dim=28] time: 1.27487
[dim=27] time: 1.31069
[dim=26] time: 1.34269
[dim=25] time: 1.37031
[dim=24] time: 1.3999
[dim=23] Time of backward = 1.4279sec.
AIC: 773.214
k: 24
